s td 208 19 392
b 1 3 4 6 12 106 108 248 253
b 2 7 88 387
b 3 8 118 278 392
b 4 9 54 56 135 261
b 5 11 49 143 144 208
b 6 18 250 313
b 7 19 119 144 171 230 309 367 391
b 8 20 60 79 100 242 252 259 364
b 9 1 32 289
b 10 1 194 289
b 11 35 59 139 215 216 257 333 384
b 12 43 161 291 295 352
b 13 52 82 96 200 261 271 303 341
b 14 68 91 117 127 172 251 270 281
b 15 69 93 101 204
b 16 72 159 165 201 294
b 17 99 268 379
b 18 46 110 164 189 192 219 228 291
b 19 38 67 111 114 116 156 204 244
b 20 17 118 278 305 350 392
b 21 25 122 246
b 22 130 142 349
b 23 131 137 314 383
b 24 64 87 132 155 163 168 256 328
b 25 5 95 138
b 26 5 95 325
b 27 142 197 349
b 28 147 158 162 237 259
b 29 150 241 243 294 307 323 340 366
b 30 61 153 214
b 31 105 173 272
b 32 105 175 272
b 33 177 269 369
b 34 64 184 315 348 381
b 35 188 202 275
b 36 191 248 284 337
b 37 202 275 322
b 38 61 214 389
b 39 17 249 305 350
b 40 17 278 305 350 392
b 41 279 336 368
b 42 77 137 152 293 314 383
b 43 300 313 330
b 44 300 313 361
b 45 77 152 293 334
b 46 77 137 152 293 383
b 47 25 332 335
b 48 25 180 332
b 49 77 137 196 215
b 50 251 278 305 365
b 51 2 193 226 339
b 52 85 193 226 339
b 53 29 338 360 373
b 54 326 338 360 373
b 55 46 275 291
b 56 44 64 87
b 57 44 87 349
b 58 44 144 367
b 59 176 278 290 301
b 60 61 243 294
b 61 44 259 364
b 62 231 261 271
b 63 231 271 272
b 64 231 275 291
b 65 61 231 294
b 66 90 296 304 353
b 67 44 95 364
b 68 44 289 367
b 69 21 255 299 329
b 70 23 33 55 121 320
b 71 33 55 62 121 320
b 72 34 74 301 333 359
b 73 70 212 282 283 292
b 74 185 212 282 283 292
b 75 154 245 270 274 304
b 76 154 251 270 304
b 77 90 251 304 353
b 78 90 154 251 304
b 79 215 278 290 301
b 80 215 301 333 359
b 81 215 278 301 359
b 82 196 215 278 359
b 83 94 145 310 385
b 84 4 12 25 66 90 154 195 222 246
b 85 4 48 90 195 246
b 86 12 25 66 78 90 154 195 222 246 356
b 87 12 25 66 78 154 180 195 246 356
b 88 12 78 154 180 195 285
b 89 12 154 180 195 232 285
b 90 4 12 25 66 90 106 154 222 248
b 91 4 12 66 106 149 154 222 248 258 343
b 92 66 106 149 154 222 240 258 343
b 93 25 90 106 154 231 248
b 94 90 106 154 231 287
b 95 14 36 37 42 89 115 133 167 183 190 198 211 223 260 299 320 345 347
b 96 14 37 42 45 89 115 133 167 183 190 223 260 299 312 317 320 345 347 373
b 97 14 37 42 45 89 115 133 167 183 190 223 299 312 317 320 344 373 380
b 98 37 42 45 89 115 133 167 183 190 299 312 320 326 336 344 346 373 380
b 99 37 42 45 89 167 183 280 299 312 320 326 336 344 346 373 387
b 100 37 42 45 89 167 183 280 299 312 320 326 336 344 368 373 387
b 101 37 42 45 88 89 167 280 299 312 320 326 336 344 368 373 387
b 102 37 42 45 88 89 167 280 299 320 326 336 344 365 368 373 387
b 103 37 42 88 89 167 280 299 320 326 338 344 365 368 373 387
b 104 37 42 89 167 280 287 299 320 326 338 344 365 368 373
b 105 37 42 89 167 251 287 344 365
b 106 37 89 167 231 251 287 344
b 107 37 89 231 275 287 344
b 108 61 89 231 275 287
b 109 37 231 272 275 287
b 110 90 154 231 251 287
b 111 42 251 278 365
b 112 42 255 280 287 299 326 338 368 373
b 113 255 280 287 299 326 331 338 373
b 114 37 45 88 89 167 239 336 344 365 368 387
b 115 37 45 89 167 239 336 344 365 368 375
b 116 14 36 37 42 89 115 128 133 167 183 190 198 211 223 260 299 345 347
b 117 14 36 37 42 115 128 167 183 190 198 211 223 267 299 345 347
b 118 14 36 42 65 115 128 167 183 198 211 223 267 299 347
b 119 156 250 264 278 374
b 120 39 44 112 156 250 278 361 374 376
b 121 39 44 112 156 278 359 361 374 376 377
b 122 39 44 112 114 156 278 359 361 374 377
b 123 44 112 114 156 266 278 359 377
b 124 44 67 112 114 156 266 359 377
b 125 40 44 67 71 112 114 156 316 359 377
b 126 40 67 71 83 112 316 359 377
b 127 40 44 67 71 114 156 204 316
b 128 39 114 238 359 361 374
b 129 39 114 220 238 359 361
b 130 39 44 112 250 278 313 361 376
b 131 10 50 98 109 113 123 157 206 282 306 310 311 319 321 351 372 388 390
b 132 50 98 104 109 113 123 157 206 224 282 306 310 311 321 339 342 372 388 390
b 133 50 98 104 109 123 157 160 224 282 306 310 311 321 339 342 355 388 390
b 134 85 98 109 123 157 160 203 224 282 306 310 321 339 342 355 379 388 390
b 135 57 85 98 160 203 224 268 282 306 310 321 339 342 379 388 390
b 136 57 85 94 98 160 203 224 268 282 306 310 321 339 342 379 390
b 137 13 57 85 94 160 203 224 268 282 306 310 321 339 342 379 390
b 138 13 57 85 94 160 203 224 282 306 310 321 339 342 369 390
b 139 13 57 85 94 160 203 269 282 306 310 321 339 342 369 390
b 140 13 57 85 94 160 196 269 282 306 310 321 339 342 369 390
b 141 57 85 94 160 196 226 269 282 306 310 321 339 369 390
b 142 57 85 94 160 196 226 266 282 306 310 321 339 390
b 143 44 57 85 94 160 196 226 266 306 310 321 339 390
b 144 44 57 85 94 196 226 266 278 310 339
b 145 57 85 94 186 226 266 278 310 339
b 146 42 85 94 186 226 278 310 339
b 147 44 95 266 306 321 390
b 148 44 95 266 289 390
b 149 44 95 266 306 349
b 150 13 160 182 196 269 306 321 342 369 390
b 151 13 140 160 182 196 306 321 342 390
b 152 10 50 109 113 123 157 206 282 288 306 310 311 319 321 351 372 388 390
b 153 10 50 109 113 120 157 206 282 288 310 311 319 321 351 388 390
b 154 10 50 84 113 120 157 282 288 310 311 319 321 351 388
b 155 42 129 174 324 378
b 156 31 42 62 129 134 174 225 298 324 346
b 157 31 42 62 129 134 183 225 298 312 320 324 346
b 158 31 62 81 121 129 134 183 218 225 277 286 298 312 320 324
b 159 33 62 81 121 129 218 277 286 320 324
b 160 31 81 121 129 134 181 183 213 218 225 233 277 286 298 312 318 324
b 161 81 129 134 146 181 183 213 218 233 277 286 298 318 324
b 162 58 81 129 134 146 181 183 213 218 277 286 318 324
b 163 31 81 121 181 213 225 233 247 277 312 318 324
b 164 24 121 181 225 233 247 277 312 318 324
b 165 98 124 125 354 382
b 166 16 97 98 124 125 203 207 234 292 354
b 167 16 97 98 125 203 207 224 234 282 292 354 388
b 168 16 26 97 125 185 207 224 234 273 276 282 292 297 327 354 362 388
b 169 26 97 125 185 224 234 273 276 297 327 362 386
b 170 26 97 125 185 224 229 273 276 362 386
b 171 16 26 125 148 185 207 254 273 276 282 292 297 327 354 362 388
b 172 26 125 148 185 254 282 283 292 297 354
b 173 16 26 125 148 207 221 254 273 276 297 327 354 362 388
b 174 16 26 125 148 210 221 254 273 297 327 354 362 388
b 175 28 107 112 250 313 361 376
b 176 39 107 112 250 313 361 376
b 177 25 30 66 75 180 246 356
b 178 25 66 75 78 180 246 356
b 179 27 41 73 94 169 199 236 339
b 180 24 121 141 181 233 247 312 324
b 181 22 166 179 205 255 265 370 373
b 182 125 185 224 229 262 273 276 386
b 183 4 6 12 106 108 248 253 258
b 184 4 12 106 108 149 248 253 258
b 185 4 12 106 149 248 253 258 343
b 186 38 67 71 111 114 156 204 244
b 187 40 67 71 111 114 156 204 244
b 188 40 67 71 114 156 204 244 316
b 189 15 37 45 89 167 239 344 365 375
b 190 44 196 266 278 359
b 191 53 63 80 92 151 265 326 329 358
b 192 53 80 92 151 255 265 299 326 329 331 358
b 193 53 80 92 151 255 265 299 326 331 338 358 373
b 194 53 80 92 151 170 179 205 255 265 299 308 338 358 370 373
b 195 22 170 179 205 255 265 308 358 370 373
b 196 53 80 92 151 170 179 205 209 255 299 308 338 370 371
b 197 80 92 136 151 170 179 205 209 255 299 308 338 357 371
b 198 92 136 151 170 178 205 209 255 299 308 338 357 371
b 199 92 103 136 151 170 178 205 209 255 299 308 357 371
b 200 27 41 76 94 169 199 236 339 363
b 201 27 41 47 76 94 199 217 227 236 339 363
b 202 41 42 47 51 76 94 126 199 217 226 227 236 302 310 339 363
b 203 42 47 51 85 94 126 186 226 302 310 339 363
b 204 47 51 85 94 126 145 186 302 310 363
b 205 41 42 51 76 94 126 187 199 217 226 227 236 263 302 310
b 206 41 42 51 76 94 102 187 199 217 226 227 263 302 310
b 207 41 42 51 76 94 102 187 217 226 227 235 263 310
b 208 41 42 51 76 86 94 102 187 217 227 235 263 310
1 183
2 101
3 20
4 62
5 58
6 130
7 58
8 61
9 10
10 148
11 80
12 64
13 62
14 76
15 127
16 65
17 135
18 55
19 186
20 40
21 84
22 27
23 42
24 56
25 26
26 147
27 149
28 61
29 60
30 38
31 32
32 109
33 139
34 56
35 37
36 90
37 107
38 108
39 40
40 50
41 100
42 46
43 44
44 130
45 46
46 49
47 48
48 87
49 82
50 111
51 52
52 141
53 54
54 103
55 64
56 57
57 149
58 68
59 79
60 65
61 67
62 63
63 109
64 107
65 108
66 77
67 147
68 148
69 192
70 71
71 159
72 80
73 74
74 172
75 76
76 78
77 78
78 110
79 81
80 81
81 82
82 190
83 204
84 85
84 86
84 90
86 87
87 178
87 88
88 89
90 91
90 93
91 185
91 92
93 94
94 110
95 96
95 116
96 97
97 98
98 157
98 99
99 100
100 101
101 102
102 103
102 114
103 104
104 105
104 112
105 106
105 111
106 107
106 110
107 108
107 109
111 146
112 113
113 193
114 115
115 189
116 117
117 118
119 120
120 130
120 121
121 122
122 128
122 123
123 190
123 124
124 125
125 126
125 127
127 188
128 129
130 176
131 132
131 152
132 133
133 134
134 167
134 135
135 136
136 137
137 138
138 139
139 140
140 141
140 150
141 142
142 143
143 144
143 147
144 190
144 145
145 146
146 203
147 148
147 149
150 151
152 153
153 154
155 156
156 157
157 158
158 159
158 160
160 161
160 163
161 162
163 164
164 180
165 166
166 167
167 168
168 169
168 171
169 170
170 182
171 172
171 173
173 174
175 176
177 178
179 200
181 195
183 184
184 185
186 187
187 188
191 192
192 193
193 194
194 195
194 196
196 197
197 198
198 199
200 201
201 202
202 205
202 203
203 204
205 206
206 207
207 208
